# probname 
testdata2
# nNodes nOpticalNodes nLinks nOpticalLinks nFlows
6 0 7 0 2
#############
# node 0
0.0 0.0 0.0 0
1 0
# node 1
0.0 0.0 0.0 0
2 3 4
# node 2
0.0 0.0 0.0 0
2 1 5
# node 3
0.0 0.0 0.0 0
0
# node 4
0.0 0.0 0.0 0
2 2 6
# node 5
0.0 0.0 0.0 0
0
#############
# link 0
3 0.0 1.0 0
0 1
# link 1
2 0.0 1.0 0
2 0
# link 2 
2 0.0 1.0 0
4 0
# link 3
2 0.0 1.0 0
1 3
# link 4
2 0.0 1.0 0
1 5
# link 5
2 0.0 5.0 0
2 3
# link 6
2 0.0 7.0 0
4 5
#############
# flow 1
2 3 1.0 2 0.0 0.0
# flow 2
4 5 1.0 2 0.0 0.0
