# probname 
testdata1
# nNodes nOpticalNodes nLinks nOpticalLinks nFlows
6 2 7 1 2
#############
# node1
4.0 4.0 1.0 1
1 1
# node2
4.0 4.0 1.0 1
2 6 7
# node 3
4.0 4.0 1.0 0
2 3 5
# node 4
4.0 4.0 1.0 0
0
# node 5
4.0 4.0 1.0 0
2 2 4
# node 6
4.0 4.0 1.0 0
0
#############
# link 1
1000 2.0 1.0 1
1 2
# link 2
1000 2.0 10.0 0
5 6
# link 3 
1000 2.0 1.0 0
3 1
# link 4
1000 2.0 1.0 0
5 1
# link 5
1000 2.0 10.0 0
3 4
# link 6
1000 2.0 1.0 0
2 4
# link 7 
1000 2.0 1.0 0
2 6
#############
# flow 1
3 4 1.0 900 500.0 2000.0
# flow 2
5 6 1.0 900 100.0 1000.0
